40
1 0 7
2 0 4
2 1 6
3 0 9
3 1 7
3 2 2
4 0 2
4 1 6
4 2 11
4 3 3
5 0 5
5 1 1
5 2 11
5 3 4
5 4 11
6 0 6
6 1 1
6 2 1
6 3 4
6 4 8
6 5 8
7 0 11
7 1 3
7 2 1
7 3 5
7 4 4
7 5 8
7 6 7
8 0 5
8 1 11
8 2 7
8 3 7
8 4 11
8 5 10
8 6 1
8 7 3
9 0 4
9 1 9
9 2 2
9 3 4
9 4 4
9 5 3
9 6 5
9 7 11
9 8 3
10 0 9
10 1 9
10 2 11
10 3 1
10 4 5
10 5 8
10 6 10
10 7 3
10 8 9
10 9 9
11 0 5
11 1 9
11 2 1
11 3 1
11 4 10
11 5 7
11 6 4
11 7 7
11 8 2
11 9 6
11 10 6
12 0 7
12 1 4
12 2 1
12 3 1
12 4 5
12 5 1
12 6 8
12 7 11
12 8 4
12 9 11
12 10 11
12 11 9
13 0 7
13 1 2
13 2 10
13 3 3
13 4 8
13 5 9
13 6 7
13 7 6
13 8 11
13 9 9
13 10 2
13 11 9
13 12 8
14 0 3
14 1 1
14 2 9
14 3 5
14 4 11
14 5 3
14 6 9
14 7 3
14 8 6
14 9 2
14 10 7
14 11 5
14 12 11
14 13 11
15 0 10
15 1 1
15 2 7
15 3 4
15 4 2
15 5 3
15 6 6
15 7 10
15 8 4
15 9 4
15 10 8
15 11 6
15 12 11
15 13 8
15 14 4
16 0 6
16 1 8
16 2 1
16 3 3
16 4 8
16 5 3
16 6 4
16 7 5
16 8 4
16 9 7
16 10 7
16 11 7
16 12 7
16 13 9
16 14 1
16 15 8
17 0 10
17 1 1
17 2 7
17 3 4
17 4 1
17 5 11
17 6 6
17 7 7
17 8 6
17 9 9
17 10 11
17 11 4
17 12 7
17 13 9
17 14 11
17 15 2
17 16 1
18 0 1
18 1 4
18 2 11
18 3 11
18 4 5
18 5 4
18 6 11
18 7 2
18 8 9
18 9 7
18 10 4
18 11 11
18 12 10
18 13 8
18 14 6
18 15 7
18 16 2
18 17 5
19 0 1
19 1 7
19 2 1
19 3 2
19 4 9
19 5 7
19 6 2
19 7 9
19 8 4
19 9 2
19 10 3
19 11 11
19 12 9
19 13 6
19 14 4
19 15 1
19 16 3
19 17 7
19 18 3
20 0 7
20 1 3
20 2 9
20 3 10
20 4 8
20 5 9
20 6 2
20 7 6
20 8 10
20 9 2
20 10 3
20 11 8
20 12 8
20 13 4
20 14 10
20 15 11
20 16 4
20 17 6
20 18 2
20 19 4
21 0 3
21 1 4
21 2 1
21 3 3
21 4 11
21 5 11
21 6 11
21 7 11
21 8 4
21 9 3
21 10 8
21 11 8
21 12 3
21 13 4
21 14 6
21 15 3
21 16 3
21 17 10
21 18 5
21 19 9
21 20 9
22 0 5
22 1 2
22 2 3
22 3 3
22 4 1
22 5 2
22 6 4
22 7 10
22 8 11
22 9 5
22 10 5
22 11 6
22 12 11
22 13 8
22 14 10
22 15 3
22 16 9
22 17 6
22 18 4
22 19 1
22 20 8
22 21 1
23 0 2
23 1 11
23 2 4
23 3 2
23 4 9
23 5 11
23 6 4
23 7 3
23 8 4
23 9 2
23 10 8
23 11 2
23 12 2
23 13 3
23 14 7
23 15 1
23 16 10
23 17 5
23 18 11
23 19 3
23 20 6
23 21 8
23 22 8
24 0 11
24 1 11
24 2 9
24 3 8
24 4 6
24 5 8
24 6 10
24 7 5
24 8 10
24 9 1
24 10 5
24 11 1
24 12 5
24 13 3
24 14 2
24 15 9
24 16 1
24 17 11
24 18 5
24 19 4
24 20 3
24 21 9
24 22 2
24 23 4
25 0 7
25 1 4
25 2 6
25 3 2
25 4 9
25 5 10
25 6 5
25 7 7
25 8 1
25 9 3
25 10 4
25 11 1
25 12 3
25 13 11
25 14 10
25 15 8
25 16 2
25 17 10
25 18 9
25 19 8
25 20 5
25 21 6
25 22 8
25 23 4
25 24 8
26 0 11
26 1 5
26 2 8
26 3 11
26 4 11
26 5 11
26 6 4
26 7 6
26 8 6
26 9 5
26 10 5
26 11 9
26 12 7
26 13 3
26 14 7
26 15 4
26 16 10
26 17 5
26 18 2
26 19 9
26 20 8
26 21 8
26 22 7
26 23 8
26 24 9
26 25 7
27 0 2
27 1 1
27 2 2
27 3 7
27 4 10
27 5 7
27 6 3
27 7 4
27 8 2
27 9 7
27 10 5
27 11 7
27 12 10
27 13 2
27 14 10
27 15 5
27 16 4
27 17 10
27 18 8
27 19 10
27 20 10
27 21 4
27 22 8
27 23 2
27 24 5
27 25 3
27 26 3
28 0 5
28 1 7
28 2 2
28 3 10
28 4 2
28 5 4
28 6 4
28 7 9
28 8 2
28 9 10
28 10 3
28 11 4
28 12 8
28 13 11
28 14 7
28 15 9
28 16 2
28 17 2
28 18 3
28 19 10
28 20 11
28 21 8
28 22 1
28 23 8
28 24 8
28 25 4
28 26 9
28 27 2
29 0 10
29 1 11
29 2 5
29 3 1
29 4 1
29 5 8
29 6 9
29 7 10
29 8 8
29 9 10
29 10 10
29 11 3
29 12 9
29 13 9
29 14 7
29 15 2
29 16 1
29 17 2
29 18 4
29 19 1
29 20 7
29 21 6
29 22 9
29 23 4
29 24 7
29 25 6
29 26 3
29 27 1
29 28 3
30 0 2
30 1 1
30 2 9
30 3 8
30 4 6
30 5 8
30 6 4
30 7 3
30 8 2
30 9 3
30 10 3
30 11 11
30 12 4
30 13 3
30 14 7
30 15 11
30 16 10
30 17 8
30 18 8
30 19 4
30 20 4
30 21 2
30 22 5
30 23 1
30 24 6
30 25 3
30 26 10
30 27 8
30 28 11
30 29 3
31 0 6
31 1 7
31 2 7
31 3 8
31 4 8
31 5 8
31 6 8
31 7 9
31 8 2
31 9 6
31 10 5
31 11 10
31 12 10
31 13 8
31 14 4
31 15 5
31 16 10
31 17 1
31 18 3
31 19 8
31 20 10
31 21 2
31 22 8
31 23 10
31 24 5
31 25 1
31 26 1
31 27 1
31 28 4
31 29 6
31 30 3
32 0 8
32 1 7
32 2 7
32 3 4
32 4 9
32 5 1
32 6 4
32 7 4
32 8 3
32 9 11
32 10 4
32 11 3
32 12 4
32 13 11
32 14 11
32 15 9
32 16 3
32 17 10
32 18 5
32 19 5
32 20 7
32 21 10
32 22 3
32 23 11
32 24 2
32 25 9
32 26 2
32 27 2
32 28 9
32 29 3
32 30 2
32 31 8
33 0 2
33 1 9
33 2 6
33 3 11
33 4 3
33 5 2
33 6 1
33 7 10
33 8 7
33 9 6
33 10 2
33 11 4
33 12 5
33 13 3
33 14 3
33 15 3
33 16 7
33 17 4
33 18 11
33 19 7
33 20 6
33 21 7
33 22 11
33 23 4
33 24 11
33 25 11
33 26 5
33 27 9
33 28 11
33 29 1
33 30 4
33 31 3
33 32 8
34 0 2
34 1 3
34 2 2
34 3 5
34 4 2
34 5 6
34 6 3
34 7 11
34 8 2
34 9 4
34 10 4
34 11 3
34 12 6
34 13 6
34 14 3
34 15 2
34 16 7
34 17 5
34 18 3
34 19 1
34 20 7
34 21 8
34 22 2
34 23 3
34 24 10
34 25 4
34 26 7
34 27 3
34 28 10
34 29 3
34 30 9
34 31 11
34 32 10
34 33 8
35 0 4
35 1 3
35 2 5
35 3 11
35 4 4
35 5 3
35 6 5
35 7 8
35 8 8
35 9 11
35 10 9
35 11 1
35 12 10
35 13 5
35 14 11
35 15 1
35 16 6
35 17 8
35 18 5
35 19 10
35 20 1
35 21 7
35 22 9
35 23 10
35 24 6
35 25 6
35 26 3
35 27 6
35 28 10
35 29 11
35 30 11
35 31 8
35 32 10
35 33 1
35 34 10
36 0 8
36 1 4
36 2 10
36 3 6
36 4 11
36 5 10
36 6 9
36 7 3
36 8 1
36 9 11
36 10 5
36 11 8
36 12 6
36 13 4
36 14 5
36 15 3
36 16 2
36 17 9
36 18 7
36 19 1
36 20 5
36 21 8
36 22 1
36 23 5
36 24 6
36 25 7
36 26 5
36 27 10
36 28 5
36 29 9
36 30 6
36 31 4
36 32 9
36 33 6
36 34 9
36 35 5
37 0 2
37 1 8
37 2 8
37 3 8
37 4 1
37 5 1
37 6 11
37 7 1
37 8 11
37 9 2
37 10 9
37 11 3
37 12 2
37 13 11
37 14 5
37 15 4
37 16 5
37 17 5
37 18 1
37 19 11
37 20 4
37 21 7
37 22 11
37 23 5
37 24 11
37 25 8
37 26 4
37 27 1
37 28 9
37 29 1
37 30 2
37 31 8
37 32 10
37 33 9
37 34 6
37 35 1
37 36 6
38 0 8
38 1 2
38 2 5
38 3 9
38 4 3
38 5 8
38 6 6
38 7 11
38 8 4
38 9 8
38 10 6
38 11 8
38 12 1
38 13 9
38 14 8
38 15 10
38 16 9
38 17 7
38 18 8
38 19 8
38 20 7
38 21 5
38 22 11
38 23 9
38 24 1
38 25 8
38 26 5
38 27 1
38 28 3
38 29 10
38 30 1
38 31 8
38 32 3
38 33 8
38 34 3
38 35 6
38 36 1
38 37 6
39 0 6
39 1 9
39 2 5
39 3 8
39 4 1
39 5 10
39 6 7
39 7 7
39 8 8
39 9 5
39 10 5
39 11 3
39 12 2
39 13 5
39 14 2
39 15 8
39 16 6
39 17 6
39 18 5
39 19 11
39 20 1
39 21 10
39 22 4
39 23 10
39 24 10
39 25 8
39 26 1
39 27 3
39 28 4
39 29 10
39 30 8
39 31 6
39 32 4
39 33 4
39 34 4
39 35 2
39 36 9
39 37 8
39 38 7
